c CNF encoding of the claim that there is a graph of 12 vertices
c with no independent set of size 3 and no clique of size 4
c Generated with `cnfgen` (C) Massimo Lauria <lauria@kth.se>
c https://github.com/MassimoLauria/cnfgen.git
p cnf 66 715
1 2 3 0
1 4 5 0
1 6 7 0
1 8 9 0
1 10 11 0
1 12 13 0
1 14 15 0
1 16 17 0
1 18 19 0
1 20 21 0
2 4 22 0
2 6 23 0
2 8 24 0
2 10 25 0
2 12 26 0
2 14 27 0
2 16 28 0
2 18 29 0
2 20 30 0
4 6 31 0
4 8 32 0
4 10 33 0
4 12 34 0
4 14 35 0
4 16 36 0
4 18 37 0
4 20 38 0
6 8 39 0
6 10 40 0
6 12 41 0
6 14 42 0
6 16 43 0
6 18 44 0
6 20 45 0
8 10 46 0
8 12 47 0
8 14 48 0
8 16 49 0
8 18 50 0
8 20 51 0
10 12 52 0
10 14 53 0
10 16 54 0
10 18 55 0
10 20 56 0
12 14 57 0
12 16 58 0
12 18 59 0
12 20 60 0
14 16 61 0
14 18 62 0
14 20 63 0
16 18 64 0
16 20 65 0
18 20 66 0
3 5 22 0
3 7 23 0
3 9 24 0
3 11 25 0
3 13 26 0
3 15 27 0
3 17 28 0
3 19 29 0
3 21 30 0
5 7 31 0
5 9 32 0
5 11 33 0
5 13 34 0
5 15 35 0
5 17 36 0
5 19 37 0
5 21 38 0
7 9 39 0
7 11 40 0
7 13 41 0
7 15 42 0
7 17 43 0
7 19 44 0
7 21 45 0
9 11 46 0
9 13 47 0
9 15 48 0
9 17 49 0
9 19 50 0
9 21 51 0
11 13 52 0
11 15 53 0
11 17 54 0
11 19 55 0
11 21 56 0
13 15 57 0
13 17 58 0
13 19 59 0
13 21 60 0
15 17 61 0
15 19 62 0
15 21 63 0
17 19 64 0
17 21 65 0
19 21 66 0
22 23 31 0
22 24 32 0
22 25 33 0
22 26 34 0
22 27 35 0
22 28 36 0
22 29 37 0
22 30 38 0
23 24 39 0
23 25 40 0
23 26 41 0
23 27 42 0
23 28 43 0
23 29 44 0
23 30 45 0
24 25 46 0
24 26 47 0
24 27 48 0
24 28 49 0
24 29 50 0
24 30 51 0
25 26 52 0
25 27 53 0
25 28 54 0
25 29 55 0
25 30 56 0
26 27 57 0
26 28 58 0
26 29 59 0
26 30 60 0
27 28 61 0
27 29 62 0
27 30 63 0
28 29 64 0
28 30 65 0
29 30 66 0
31 32 39 0
31 33 40 0
31 34 41 0
31 35 42 0
31 36 43 0
31 37 44 0
31 38 45 0
32 33 46 0
32 34 47 0
32 35 48 0
32 36 49 0
32 37 50 0
32 38 51 0
33 34 52 0
33 35 53 0
33 36 54 0
33 37 55 0
33 38 56 0
34 35 57 0
34 36 58 0
34 37 59 0
34 38 60 0
35 36 61 0
35 37 62 0
35 38 63 0
36 37 64 0
36 38 65 0
37 38 66 0
39 40 46 0
39 41 47 0
39 42 48 0
39 43 49 0
39 44 50 0
39 45 51 0
40 41 52 0
40 42 53 0
40 43 54 0
40 44 55 0
40 45 56 0
41 42 57 0
41 43 58 0
41 44 59 0
41 45 60 0
42 43 61 0
42 44 62 0
42 45 63 0
43 44 64 0
43 45 65 0
44 45 66 0
46 47 52 0
46 48 53 0
46 49 54 0
46 50 55 0
46 51 56 0
47 48 57 0
47 49 58 0
47 50 59 0
47 51 60 0
48 49 61 0
48 50 62 0
48 51 63 0
49 50 64 0
49 51 65 0
50 51 66 0
52 53 57 0
52 54 58 0
52 55 59 0
52 56 60 0
53 54 61 0
53 55 62 0
53 56 63 0
54 55 64 0
54 56 65 0
55 56 66 0
57 58 61 0
57 59 62 0
57 60 63 0
58 59 64 0
58 60 65 0
59 60 66 0
61 62 64 0
61 63 65 0
62 63 66 0
64 65 66 0
-1 -2 -4 -3 -5 -22 0
-1 -2 -6 -3 -7 -23 0
-1 -2 -8 -3 -9 -24 0
-1 -2 -10 -3 -11 -25 0
-1 -2 -12 -3 -13 -26 0
-1 -2 -14 -3 -15 -27 0
-1 -2 -16 -3 -17 -28 0
-1 -2 -18 -3 -19 -29 0
-1 -2 -20 -3 -21 -30 0
-1 -4 -6 -5 -7 -31 0
-1 -4 -8 -5 -9 -32 0
-1 -4 -10 -5 -11 -33 0
-1 -4 -12 -5 -13 -34 0
-1 -4 -14 -5 -15 -35 0
-1 -4 -16 -5 -17 -36 0
-1 -4 -18 -5 -19 -37 0
-1 -4 -20 -5 -21 -38 0
-1 -6 -8 -7 -9 -39 0
-1 -6 -10 -7 -11 -40 0
-1 -6 -12 -7 -13 -41 0
-1 -6 -14 -7 -15 -42 0
-1 -6 -16 -7 -17 -43 0
-1 -6 -18 -7 -19 -44 0
-1 -6 -20 -7 -21 -45 0
-1 -8 -10 -9 -11 -46 0
-1 -8 -12 -9 -13 -47 0
-1 -8 -14 -9 -15 -48 0
-1 -8 -16 -9 -17 -49 0
-1 -8 -18 -9 -19 -50 0
-1 -8 -20 -9 -21 -51 0
-1 -10 -12 -11 -13 -52 0
-1 -10 -14 -11 -15 -53 0
-1 -10 -16 -11 -17 -54 0
-1 -10 -18 -11 -19 -55 0
-1 -10 -20 -11 -21 -56 0
-1 -12 -14 -13 -15 -57 0
-1 -12 -16 -13 -17 -58 0
-1 -12 -18 -13 -19 -59 0
-1 -12 -20 -13 -21 -60 0
-1 -14 -16 -15 -17 -61 0
-1 -14 -18 -15 -19 -62 0
-1 -14 -20 -15 -21 -63 0
-1 -16 -18 -17 -19 -64 0
-1 -16 -20 -17 -21 -65 0
-1 -18 -20 -19 -21 -66 0
-2 -4 -6 -22 -23 -31 0
-2 -4 -8 -22 -24 -32 0
-2 -4 -10 -22 -25 -33 0
-2 -4 -12 -22 -26 -34 0
-2 -4 -14 -22 -27 -35 0
-2 -4 -16 -22 -28 -36 0
-2 -4 -18 -22 -29 -37 0
-2 -4 -20 -22 -30 -38 0
-2 -6 -8 -23 -24 -39 0
-2 -6 -10 -23 -25 -40 0
-2 -6 -12 -23 -26 -41 0
-2 -6 -14 -23 -27 -42 0
-2 -6 -16 -23 -28 -43 0
-2 -6 -18 -23 -29 -44 0
-2 -6 -20 -23 -30 -45 0
-2 -8 -10 -24 -25 -46 0
-2 -8 -12 -24 -26 -47 0
-2 -8 -14 -24 -27 -48 0
-2 -8 -16 -24 -28 -49 0
-2 -8 -18 -24 -29 -50 0
-2 -8 -20 -24 -30 -51 0
-2 -10 -12 -25 -26 -52 0
-2 -10 -14 -25 -27 -53 0
-2 -10 -16 -25 -28 -54 0
-2 -10 -18 -25 -29 -55 0
-2 -10 -20 -25 -30 -56 0
-2 -12 -14 -26 -27 -57 0
-2 -12 -16 -26 -28 -58 0
-2 -12 -18 -26 -29 -59 0
-2 -12 -20 -26 -30 -60 0
-2 -14 -16 -27 -28 -61 0
-2 -14 -18 -27 -29 -62 0
-2 -14 -20 -27 -30 -63 0
-2 -16 -18 -28 -29 -64 0
-2 -16 -20 -28 -30 -65 0
-2 -18 -20 -29 -30 -66 0
-4 -6 -8 -31 -32 -39 0
-4 -6 -10 -31 -33 -40 0
-4 -6 -12 -31 -34 -41 0
-4 -6 -14 -31 -35 -42 0
-4 -6 -16 -31 -36 -43 0
-4 -6 -18 -31 -37 -44 0
-4 -6 -20 -31 -38 -45 0
-4 -8 -10 -32 -33 -46 0
-4 -8 -12 -32 -34 -47 0
-4 -8 -14 -32 -35 -48 0
-4 -8 -16 -32 -36 -49 0
-4 -8 -18 -32 -37 -50 0
-4 -8 -20 -32 -38 -51 0
-4 -10 -12 -33 -34 -52 0
-4 -10 -14 -33 -35 -53 0
-4 -10 -16 -33 -36 -54 0
-4 -10 -18 -33 -37 -55 0
-4 -10 -20 -33 -38 -56 0
-4 -12 -14 -34 -35 -57 0
-4 -12 -16 -34 -36 -58 0
-4 -12 -18 -34 -37 -59 0
-4 -12 -20 -34 -38 -60 0
-4 -14 -16 -35 -36 -61 0
-4 -14 -18 -35 -37 -62 0
-4 -14 -20 -35 -38 -63 0
-4 -16 -18 -36 -37 -64 0
-4 -16 -20 -36 -38 -65 0
-4 -18 -20 -37 -38 -66 0
-6 -8 -10 -39 -40 -46 0
-6 -8 -12 -39 -41 -47 0
-6 -8 -14 -39 -42 -48 0
-6 -8 -16 -39 -43 -49 0
-6 -8 -18 -39 -44 -50 0
-6 -8 -20 -39 -45 -51 0
-6 -10 -12 -40 -41 -52 0
-6 -10 -14 -40 -42 -53 0
-6 -10 -16 -40 -43 -54 0
-6 -10 -18 -40 -44 -55 0
-6 -10 -20 -40 -45 -56 0
-6 -12 -14 -41 -42 -57 0
-6 -12 -16 -41 -43 -58 0
-6 -12 -18 -41 -44 -59 0
-6 -12 -20 -41 -45 -60 0
-6 -14 -16 -42 -43 -61 0
-6 -14 -18 -42 -44 -62 0
-6 -14 -20 -42 -45 -63 0
-6 -16 -18 -43 -44 -64 0
-6 -16 -20 -43 -45 -65 0
-6 -18 -20 -44 -45 -66 0
-8 -10 -12 -46 -47 -52 0
-8 -10 -14 -46 -48 -53 0
-8 -10 -16 -46 -49 -54 0
-8 -10 -18 -46 -50 -55 0
-8 -10 -20 -46 -51 -56 0
-8 -12 -14 -47 -48 -57 0
-8 -12 -16 -47 -49 -58 0
-8 -12 -18 -47 -50 -59 0
-8 -12 -20 -47 -51 -60 0
-8 -14 -16 -48 -49 -61 0
-8 -14 -18 -48 -50 -62 0
-8 -14 -20 -48 -51 -63 0
-8 -16 -18 -49 -50 -64 0
-8 -16 -20 -49 -51 -65 0
-8 -18 -20 -50 -51 -66 0
-10 -12 -14 -52 -53 -57 0
-10 -12 -16 -52 -54 -58 0
-10 -12 -18 -52 -55 -59 0
-10 -12 -20 -52 -56 -60 0
-10 -14 -16 -53 -54 -61 0
-10 -14 -18 -53 -55 -62 0
-10 -14 -20 -53 -56 -63 0
-10 -16 -18 -54 -55 -64 0
-10 -16 -20 -54 -56 -65 0
-10 -18 -20 -55 -56 -66 0
-12 -14 -16 -57 -58 -61 0
-12 -14 -18 -57 -59 -62 0
-12 -14 -20 -57 -60 -63 0
-12 -16 -18 -58 -59 -64 0
-12 -16 -20 -58 -60 -65 0
-12 -18 -20 -59 -60 -66 0
-14 -16 -18 -61 -62 -64 0
-14 -16 -20 -61 -63 -65 0
-14 -18 -20 -62 -63 -66 0
-16 -18 -20 -64 -65 -66 0
-3 -5 -7 -22 -23 -31 0
-3 -5 -9 -22 -24 -32 0
-3 -5 -11 -22 -25 -33 0
-3 -5 -13 -22 -26 -34 0
-3 -5 -15 -22 -27 -35 0
-3 -5 -17 -22 -28 -36 0
-3 -5 -19 -22 -29 -37 0
-3 -5 -21 -22 -30 -38 0
-3 -7 -9 -23 -24 -39 0
-3 -7 -11 -23 -25 -40 0
-3 -7 -13 -23 -26 -41 0
-3 -7 -15 -23 -27 -42 0
-3 -7 -17 -23 -28 -43 0
-3 -7 -19 -23 -29 -44 0
-3 -7 -21 -23 -30 -45 0
-3 -9 -11 -24 -25 -46 0
-3 -9 -13 -24 -26 -47 0
-3 -9 -15 -24 -27 -48 0
-3 -9 -17 -24 -28 -49 0
-3 -9 -19 -24 -29 -50 0
-3 -9 -21 -24 -30 -51 0
-3 -11 -13 -25 -26 -52 0
-3 -11 -15 -25 -27 -53 0
-3 -11 -17 -25 -28 -54 0
-3 -11 -19 -25 -29 -55 0
-3 -11 -21 -25 -30 -56 0
-3 -13 -15 -26 -27 -57 0
-3 -13 -17 -26 -28 -58 0
-3 -13 -19 -26 -29 -59 0
-3 -13 -21 -26 -30 -60 0
-3 -15 -17 -27 -28 -61 0
-3 -15 -19 -27 -29 -62 0
-3 -15 -21 -27 -30 -63 0
-3 -17 -19 -28 -29 -64 0
-3 -17 -21 -28 -30 -65 0
-3 -19 -21 -29 -30 -66 0
-5 -7 -9 -31 -32 -39 0
-5 -7 -11 -31 -33 -40 0
-5 -7 -13 -31 -34 -41 0
-5 -7 -15 -31 -35 -42 0
-5 -7 -17 -31 -36 -43 0
-5 -7 -19 -31 -37 -44 0
-5 -7 -21 -31 -38 -45 0
-5 -9 -11 -32 -33 -46 0
-5 -9 -13 -32 -34 -47 0
-5 -9 -15 -32 -35 -48 0
-5 -9 -17 -32 -36 -49 0
-5 -9 -19 -32 -37 -50 0
-5 -9 -21 -32 -38 -51 0
-5 -11 -13 -33 -34 -52 0
-5 -11 -15 -33 -35 -53 0
-5 -11 -17 -33 -36 -54 0
-5 -11 -19 -33 -37 -55 0
-5 -11 -21 -33 -38 -56 0
-5 -13 -15 -34 -35 -57 0
-5 -13 -17 -34 -36 -58 0
-5 -13 -19 -34 -37 -59 0
-5 -13 -21 -34 -38 -60 0
-5 -15 -17 -35 -36 -61 0
-5 -15 -19 -35 -37 -62 0
-5 -15 -21 -35 -38 -63 0
-5 -17 -19 -36 -37 -64 0
-5 -17 -21 -36 -38 -65 0
-5 -19 -21 -37 -38 -66 0
-7 -9 -11 -39 -40 -46 0
-7 -9 -13 -39 -41 -47 0
-7 -9 -15 -39 -42 -48 0
-7 -9 -17 -39 -43 -49 0
-7 -9 -19 -39 -44 -50 0
-7 -9 -21 -39 -45 -51 0
-7 -11 -13 -40 -41 -52 0
-7 -11 -15 -40 -42 -53 0
-7 -11 -17 -40 -43 -54 0
-7 -11 -19 -40 -44 -55 0
-7 -11 -21 -40 -45 -56 0
-7 -13 -15 -41 -42 -57 0
-7 -13 -17 -41 -43 -58 0
-7 -13 -19 -41 -44 -59 0
-7 -13 -21 -41 -45 -60 0
-7 -15 -17 -42 -43 -61 0
-7 -15 -19 -42 -44 -62 0
-7 -15 -21 -42 -45 -63 0
-7 -17 -19 -43 -44 -64 0
-7 -17 -21 -43 -45 -65 0
-7 -19 -21 -44 -45 -66 0
-9 -11 -13 -46 -47 -52 0
-9 -11 -15 -46 -48 -53 0
-9 -11 -17 -46 -49 -54 0
-9 -11 -19 -46 -50 -55 0
-9 -11 -21 -46 -51 -56 0
-9 -13 -15 -47 -48 -57 0
-9 -13 -17 -47 -49 -58 0
-9 -13 -19 -47 -50 -59 0
-9 -13 -21 -47 -51 -60 0
-9 -15 -17 -48 -49 -61 0
-9 -15 -19 -48 -50 -62 0
-9 -15 -21 -48 -51 -63 0
-9 -17 -19 -49 -50 -64 0
-9 -17 -21 -49 -51 -65 0
-9 -19 -21 -50 -51 -66 0
-11 -13 -15 -52 -53 -57 0
-11 -13 -17 -52 -54 -58 0
-11 -13 -19 -52 -55 -59 0
-11 -13 -21 -52 -56 -60 0
-11 -15 -17 -53 -54 -61 0
-11 -15 -19 -53 -55 -62 0
-11 -15 -21 -53 -56 -63 0
-11 -17 -19 -54 -55 -64 0
-11 -17 -21 -54 -56 -65 0
-11 -19 -21 -55 -56 -66 0
-13 -15 -17 -57 -58 -61 0
-13 -15 -19 -57 -59 -62 0
-13 -15 -21 -57 -60 -63 0
-13 -17 -19 -58 -59 -64 0
-13 -17 -21 -58 -60 -65 0
-13 -19 -21 -59 -60 -66 0
-15 -17 -19 -61 -62 -64 0
-15 -17 -21 -61 -63 -65 0
-15 -19 -21 -62 -63 -66 0
-17 -19 -21 -64 -65 -66 0
-22 -23 -24 -31 -32 -39 0
-22 -23 -25 -31 -33 -40 0
-22 -23 -26 -31 -34 -41 0
-22 -23 -27 -31 -35 -42 0
-22 -23 -28 -31 -36 -43 0
-22 -23 -29 -31 -37 -44 0
-22 -23 -30 -31 -38 -45 0
-22 -24 -25 -32 -33 -46 0
-22 -24 -26 -32 -34 -47 0
-22 -24 -27 -32 -35 -48 0
-22 -24 -28 -32 -36 -49 0
-22 -24 -29 -32 -37 -50 0
-22 -24 -30 -32 -38 -51 0
-22 -25 -26 -33 -34 -52 0
-22 -25 -27 -33 -35 -53 0
-22 -25 -28 -33 -36 -54 0
-22 -25 -29 -33 -37 -55 0
-22 -25 -30 -33 -38 -56 0
-22 -26 -27 -34 -35 -57 0
-22 -26 -28 -34 -36 -58 0
-22 -26 -29 -34 -37 -59 0
-22 -26 -30 -34 -38 -60 0
-22 -27 -28 -35 -36 -61 0
-22 -27 -29 -35 -37 -62 0
-22 -27 -30 -35 -38 -63 0
-22 -28 -29 -36 -37 -64 0
-22 -28 -30 -36 -38 -65 0
-22 -29 -30 -37 -38 -66 0
-23 -24 -25 -39 -40 -46 0
-23 -24 -26 -39 -41 -47 0
-23 -24 -27 -39 -42 -48 0
-23 -24 -28 -39 -43 -49 0
-23 -24 -29 -39 -44 -50 0
-23 -24 -30 -39 -45 -51 0
-23 -25 -26 -40 -41 -52 0
-23 -25 -27 -40 -42 -53 0
-23 -25 -28 -40 -43 -54 0
-23 -25 -29 -40 -44 -55 0
-23 -25 -30 -40 -45 -56 0
-23 -26 -27 -41 -42 -57 0
-23 -26 -28 -41 -43 -58 0
-23 -26 -29 -41 -44 -59 0
-23 -26 -30 -41 -45 -60 0
-23 -27 -28 -42 -43 -61 0
-23 -27 -29 -42 -44 -62 0
-23 -27 -30 -42 -45 -63 0
-23 -28 -29 -43 -44 -64 0
-23 -28 -30 -43 -45 -65 0
-23 -29 -30 -44 -45 -66 0
-24 -25 -26 -46 -47 -52 0
-24 -25 -27 -46 -48 -53 0
-24 -25 -28 -46 -49 -54 0
-24 -25 -29 -46 -50 -55 0
-24 -25 -30 -46 -51 -56 0
-24 -26 -27 -47 -48 -57 0
-24 -26 -28 -47 -49 -58 0
-24 -26 -29 -47 -50 -59 0
-24 -26 -30 -47 -51 -60 0
-24 -27 -28 -48 -49 -61 0
-24 -27 -29 -48 -50 -62 0
-24 -27 -30 -48 -51 -63 0
-24 -28 -29 -49 -50 -64 0
-24 -28 -30 -49 -51 -65 0
-24 -29 -30 -50 -51 -66 0
-25 -26 -27 -52 -53 -57 0
-25 -26 -28 -52 -54 -58 0
-25 -26 -29 -52 -55 -59 0
-25 -26 -30 -52 -56 -60 0
-25 -27 -28 -53 -54 -61 0
-25 -27 -29 -53 -55 -62 0
-25 -27 -30 -53 -56 -63 0
-25 -28 -29 -54 -55 -64 0
-25 -28 -30 -54 -56 -65 0
-25 -29 -30 -55 -56 -66 0
-26 -27 -28 -57 -58 -61 0
-26 -27 -29 -57 -59 -62 0
-26 -27 -30 -57 -60 -63 0
-26 -28 -29 -58 -59 -64 0
-26 -28 -30 -58 -60 -65 0
-26 -29 -30 -59 -60 -66 0
-27 -28 -29 -61 -62 -64 0
-27 -28 -30 -61 -63 -65 0
-27 -29 -30 -62 -63 -66 0
-28 -29 -30 -64 -65 -66 0
-31 -32 -33 -39 -40 -46 0
-31 -32 -34 -39 -41 -47 0
-31 -32 -35 -39 -42 -48 0
-31 -32 -36 -39 -43 -49 0
-31 -32 -37 -39 -44 -50 0
-31 -32 -38 -39 -45 -51 0
-31 -33 -34 -40 -41 -52 0
-31 -33 -35 -40 -42 -53 0
-31 -33 -36 -40 -43 -54 0
-31 -33 -37 -40 -44 -55 0
-31 -33 -38 -40 -45 -56 0
-31 -34 -35 -41 -42 -57 0
-31 -34 -36 -41 -43 -58 0
-31 -34 -37 -41 -44 -59 0
-31 -34 -38 -41 -45 -60 0
-31 -35 -36 -42 -43 -61 0
-31 -35 -37 -42 -44 -62 0
-31 -35 -38 -42 -45 -63 0
-31 -36 -37 -43 -44 -64 0
-31 -36 -38 -43 -45 -65 0
-31 -37 -38 -44 -45 -66 0
-32 -33 -34 -46 -47 -52 0
-32 -33 -35 -46 -48 -53 0
-32 -33 -36 -46 -49 -54 0
-32 -33 -37 -46 -50 -55 0
-32 -33 -38 -46 -51 -56 0
-32 -34 -35 -47 -48 -57 0
-32 -34 -36 -47 -49 -58 0
-32 -34 -37 -47 -50 -59 0
-32 -34 -38 -47 -51 -60 0
-32 -35 -36 -48 -49 -61 0
-32 -35 -37 -48 -50 -62 0
-32 -35 -38 -48 -51 -63 0
-32 -36 -37 -49 -50 -64 0
-32 -36 -38 -49 -51 -65 0
-32 -37 -38 -50 -51 -66 0
-33 -34 -35 -52 -53 -57 0
-33 -34 -36 -52 -54 -58 0
-33 -34 -37 -52 -55 -59 0
-33 -34 -38 -52 -56 -60 0
-33 -35 -36 -53 -54 -61 0
-33 -35 -37 -53 -55 -62 0
-33 -35 -38 -53 -56 -63 0
-33 -36 -37 -54 -55 -64 0
-33 -36 -38 -54 -56 -65 0
-33 -37 -38 -55 -56 -66 0
-34 -35 -36 -57 -58 -61 0
-34 -35 -37 -57 -59 -62 0
-34 -35 -38 -57 -60 -63 0
-34 -36 -37 -58 -59 -64 0
-34 -36 -38 -58 -60 -65 0
-34 -37 -38 -59 -60 -66 0
-35 -36 -37 -61 -62 -64 0
-35 -36 -38 -61 -63 -65 0
-35 -37 -38 -62 -63 -66 0
-36 -37 -38 -64 -65 -66 0
-39 -40 -41 -46 -47 -52 0
-39 -40 -42 -46 -48 -53 0
-39 -40 -43 -46 -49 -54 0
-39 -40 -44 -46 -50 -55 0
-39 -40 -45 -46 -51 -56 0
-39 -41 -42 -47 -48 -57 0
-39 -41 -43 -47 -49 -58 0
-39 -41 -44 -47 -50 -59 0
-39 -41 -45 -47 -51 -60 0
-39 -42 -43 -48 -49 -61 0
-39 -42 -44 -48 -50 -62 0
-39 -42 -45 -48 -51 -63 0
-39 -43 -44 -49 -50 -64 0
-39 -43 -45 -49 -51 -65 0
-39 -44 -45 -50 -51 -66 0
-40 -41 -42 -52 -53 -57 0
-40 -41 -43 -52 -54 -58 0
-40 -41 -44 -52 -55 -59 0
-40 -41 -45 -52 -56 -60 0
-40 -42 -43 -53 -54 -61 0
-40 -42 -44 -53 -55 -62 0
-40 -42 -45 -53 -56 -63 0
-40 -43 -44 -54 -55 -64 0
-40 -43 -45 -54 -56 -65 0
-40 -44 -45 -55 -56 -66 0
-41 -42 -43 -57 -58 -61 0
-41 -42 -44 -57 -59 -62 0
-41 -42 -45 -57 -60 -63 0
-41 -43 -44 -58 -59 -64 0
-41 -43 -45 -58 -60 -65 0
-41 -44 -45 -59 -60 -66 0
-42 -43 -44 -61 -62 -64 0
-42 -43 -45 -61 -63 -65 0
-42 -44 -45 -62 -63 -66 0
-43 -44 -45 -64 -65 -66 0
-46 -47 -48 -52 -53 -57 0
-46 -47 -49 -52 -54 -58 0
-46 -47 -50 -52 -55 -59 0
-46 -47 -51 -52 -56 -60 0
-46 -48 -49 -53 -54 -61 0
-46 -48 -50 -53 -55 -62 0
-46 -48 -51 -53 -56 -63 0
-46 -49 -50 -54 -55 -64 0
-46 -49 -51 -54 -56 -65 0
-46 -50 -51 -55 -56 -66 0
-47 -48 -49 -57 -58 -61 0
-47 -48 -50 -57 -59 -62 0
-47 -48 -51 -57 -60 -63 0
-47 -49 -50 -58 -59 -64 0
-47 -49 -51 -58 -60 -65 0
-47 -50 -51 -59 -60 -66 0
-48 -49 -50 -61 -62 -64 0
-48 -49 -51 -61 -63 -65 0
-48 -50 -51 -62 -63 -66 0
-49 -50 -51 -64 -65 -66 0
-52 -53 -54 -57 -58 -61 0
-52 -53 -55 -57 -59 -62 0
-52 -53 -56 -57 -60 -63 0
-52 -54 -55 -58 -59 -64 0
-52 -54 -56 -58 -60 -65 0
-52 -55 -56 -59 -60 -66 0
-53 -54 -55 -61 -62 -64 0
-53 -54 -56 -61 -63 -65 0
-53 -55 -56 -62 -63 -66 0
-54 -55 -56 -64 -65 -66 0
-57 -58 -59 -61 -62 -64 0
-57 -58 -60 -61 -63 -65 0
-57 -59 -60 -62 -63 -66 0
-58 -59 -60 -64 -65 -66 0
-61 -62 -63 -64 -65 -66 0
